WARNING: for repeatability, setting FPU to use double precision
============================[ Problem Statistics ]=============================
|                                                                             |
|  Number of variables:           100                                         |
|  Number of clauses:             449                                         |
|  Parse time:                   0.00 s                                       |
|  Eliminated clauses:           0.00 Mb                                      |
|  Simplification time:          0.00 s                                       |
|                                                                             |
============================[ Search Statistics ]==============================
| Conflicts |          ORIGINAL         |          LEARNT          | Progress |
|           |    Vars  Clauses Literals |    Limit  Clauses Lit/Cl |          |
===============================================================================
|       100 |      99      447     1346 |      163      100      8 |  0.010 % |
===============================================================================
restarts              : 2
conflicts             : 136            (57799 /sec)
decisions             : 182            (0.00 % random) (77348 /sec)
propagations          : 3199           (1359541 /sec)
conflict literals     : 1096           (13.84 % deleted)
Memory used           : 13.00 MB
CPU time              : 0.002353 s

SATISFIABLE
